data/lp_files/q3/48_3.lp
\ Model foo
\ LP format - for model browsing. Use MPS format to capture full model detail.
Minimize
  z
Subject To
 allocateEach[1]: x[1,1] + x[2,1] + x[3,1] = 1
 allocateEach[2]: x[1,2] + x[2,2] + x[3,2] = 1
 allocateEach[3]: x[1,3] + x[2,3] + x[3,3] = 1
 allocateEach[4]: x[1,4] + x[2,4] + x[3,4] = 1
 allocateEach[5]: x[1,5] + x[2,5] + x[3,5] = 1
 allocateEach[6]: x[1,6] + x[2,6] + x[3,6] = 1
 allocateEach[7]: x[1,7] + x[2,7] + x[3,7] = 1
 allocateEach[8]: x[1,8] + x[2,8] + x[3,8] = 1
 allocateAllCash: cashProportion[1] + cashProportion[2] + cashProportion[3]
   = 1
 findWorstP[1,2]: z + 0.0421567387546899 cashProportion[1]
   - 0.0421567387546899 cashProportion[2] + 0.140719193963155 x[1,1]
   + 0.1791661397074322 x[1,2] + 0.0770414400741959 x[1,3]
   + 0.1606171746553687 x[1,4] + 0.1615024661692172 x[1,5]
   + 0.0746806627039332 x[1,6] + 0.0628978542219974 x[1,7]
   + 0.1012183297500105 x[1,8] - 0.140719193963155 x[2,1]
   - 0.1791661397074322 x[2,2] - 0.0770414400741959 x[2,3]
   - 0.1606171746553687 x[2,4] - 0.1615024661692172 x[2,5]
   - 0.0746806627039332 x[2,6] - 0.0628978542219974 x[2,7]
   - 0.1012183297500105 x[2,8] >= 0
 findWorstP[1,3]: z + 0.0421567387546899 cashProportion[1]
   - 0.0421567387546899 cashProportion[3] + 0.140719193963155 x[1,1]
   + 0.1791661397074322 x[1,2] + 0.0770414400741959 x[1,3]
   + 0.1606171746553687 x[1,4] + 0.1615024661692172 x[1,5]
   + 0.0746806627039332 x[1,6] + 0.0628978542219974 x[1,7]
   + 0.1012183297500105 x[1,8] - 0.140719193963155 x[3,1]
   - 0.1791661397074322 x[3,2] - 0.0770414400741959 x[3,3]
   - 0.1606171746553687 x[3,4] - 0.1615024661692172 x[3,5]
   - 0.0746806627039332 x[3,6] - 0.0628978542219974 x[3,7]
   - 0.1012183297500105 x[3,8] >= 0
 findWorstP[2,1]: z - 0.0644475236039055 cashProportion[1]
   + 0.0644475236039055 cashProportion[2] - 7.4114652144491333e-04 x[1,1]
   - 0.0778526085135179 x[1,2] - 0.0582283375761286 x[1,3]
   - 0.2426127026069023 x[1,4] - 0.1547062804111752 x[1,5]
   - 0.1293784036348403 x[1,6] - 0.2497663777269358 x[1,7]
   - 0.0222666194051494 x[1,8] + 7.4114652144491333e-04 x[2,1]
   + 0.0778526085135179 x[2,2] + 0.0582283375761286 x[2,3]
   + 0.2426127026069023 x[2,4] + 0.1547062804111752 x[2,5]
   + 0.1293784036348403 x[2,6] + 0.2497663777269358 x[2,7]
   + 0.0222666194051494 x[2,8] >= 0
 findWorstP[2,3]: z + 0.0644475236039055 cashProportion[2]
   - 0.0644475236039055 cashProportion[3] + 7.4114652144491333e-04 x[2,1]
   + 0.0778526085135179 x[2,2] + 0.0582283375761286 x[2,3]
   + 0.2426127026069023 x[2,4] + 0.1547062804111752 x[2,5]
   + 0.1293784036348403 x[2,6] + 0.2497663777269358 x[2,7]
   + 0.0222666194051494 x[2,8] - 7.4114652144491333e-04 x[3,1]
   - 0.0778526085135179 x[3,2] - 0.0582283375761286 x[3,3]
   - 0.2426127026069023 x[3,4] - 0.1547062804111752 x[3,5]
   - 0.1293784036348403 x[3,6] - 0.2497663777269358 x[3,7]
   - 0.0222666194051494 x[3,8] >= 0
 findWorstP[3,1]: z - 0.0696209141226024 cashProportion[1]
   + 0.0696209141226024 cashProportion[3] - 0.1839732655689769 x[1,1]
   - 0.0544087443868138 x[1,2] - 0.0801684826121767 x[1,3]
   - 0.1641661155010965 x[1,4] - 0.2927211334284819 x[1,5]
   - 0.0300762349009643 x[1,6] - 0.0796463257562572 x[1,7]
   - 0.0452187837226303 x[1,8] + 0.1839732655689769 x[3,1]
   + 0.0544087443868138 x[3,2] + 0.0801684826121767 x[3,3]
   + 0.1641661155010965 x[3,4] + 0.2927211334284819 x[3,5]
   + 0.0300762349009643 x[3,6] + 0.0796463257562572 x[3,7]
   + 0.0452187837226303 x[3,8] >= 0
 findWorstP[3,2]: z - 0.0696209141226024 cashProportion[2]
   + 0.0696209141226024 cashProportion[3] - 0.1839732655689769 x[2,1]
   - 0.0544087443868138 x[2,2] - 0.0801684826121767 x[2,3]
   - 0.1641661155010965 x[2,4] - 0.2927211334284819 x[2,5]
   - 0.0300762349009643 x[2,6] - 0.0796463257562572 x[2,7]
   - 0.0452187837226303 x[2,8] + 0.1839732655689769 x[3,1]
   + 0.0544087443868138 x[3,2] + 0.0801684826121767 x[3,3]
   + 0.1641661155010965 x[3,4] + 0.2927211334284819 x[3,5]
   + 0.0300762349009643 x[3,6] + 0.0796463257562572 x[3,7]
   + 0.0452187837226303 x[3,8] >= 0
Bounds
 z <= 1
 -infinity <= cashProportion[1] <= 1
 -infinity <= cashProportion[2] <= 1
 -infinity <= cashProportion[3] <= 1
Binaries
 x[1,1] x[1,2] x[1,3] x[1,4] x[1,5] x[1,6] x[1,7] x[1,8] x[2,1] x[2,2]
 x[2,3] x[2,4] x[2,5] x[2,6] x[2,7] x[2,8] x[3,1] x[3,2] x[3,3] x[3,4]
 x[3,5] x[3,6] x[3,7] x[3,8]
End
